
  22   10
  10   10   10   10   10   10   10   10   10   10

   0   0   0   0   0   0   0   0   0   0   0   3 2 3 7 
   8  10  10  10  10  10  10  10  10  10  10   3 8 6 4 
   2  10  10  10  10  10  10  10  10  10  10   2 8 5 
   2  10  10  10  10  10  10  10  10  10  10   1 5 
   2  10  10  10  10  10  10  10  10  10  10   3 12 10 9 
   6  10  10  10  10  10  10  10  10  10  10   3 12 11 9 
   3  10  10  10  10  10  10  10  10  10  10   3 12 11 9 
   5  10  10  10  10  10  10  10  10  10  10   2 12 10 
   5  10  10  10  10  10  10  10  10  10  10   3 21 15 13 
   6  10  10  10  10  10  10  10  10  10  10   2 21 11 
  10  10  10  10  10  10  10  10  10  10  10   2 20 13 
   5  10  10  10  10  10  10  10  10  10  10   3 19 17 15 
   8  10  10  10  10  10  10  10  10  10  10   1 14 
   2  10  10  10  10  10  10  10  10  10  10   2 19 16 
   6  10  10  10  10  10  10  10  10  10  10   2 20 18 
   5  10  10  10  10  10  10  10  10  10  10   1 17 
   8  10  10  10  10  10  10  10  10  10  10   1 18 
   9  10  10  10  10  10  10  10  10  10  10   1 22
   3  10  10  10  10  10  10  10  10  10  10   1 22
   8  10  10  10  10  10  10  10  10  10  10   1 22
   7  10  10  10  10  10  10  10  10  10  10   1 22
   0   0   0   0   0   0   0   0   0   0   0   0 
